(declare-fun temp934_1 () (_ BitVec 64))
(declare-fun var791270 () (_ BitVec 64))
(declare-fun temp934_2 () (_ BitVec 64))
(declare-fun temp934_3 () (_ BitVec 64))
(declare-fun ARGNAME_keepdim_NAMEEND () (_ BitVec 64))
(declare-fun temp934_5 () (_ BitVec 64))
(declare-fun temp934_4 () (_ BitVec 64))
(declare-fun temp934_6 () (_ BitVec 64))
(declare-fun var4139121 () (_ BitVec 64))
(assert (= temp934_1 #x0000000000000001))
(assert (= var791270 temp934_1))
(assert (= temp934_2 #x0000000000000001))
(assert (= var791270 temp934_2))
(assert (= temp934_3 #x0000000000000001))
(assert (= ARGNAME_keepdim_NAMEEND temp934_3))
(assert (= temp934_5 #x0000000000000001))
(assert (= temp934_4 temp934_5))
(assert (= temp934_6 #x0000000000000000))
(assert (= var4139121 temp934_6))
(model-add temp934_1 () (_ BitVec 64) #x0000000000000001)
(model-add var791270 () (_ BitVec 64) #x0000000000000001)
(model-add temp934_2 () (_ BitVec 64) #x0000000000000001)






